

******************************************************************************
This program contains Ipopt, a library for large-scale nonlinear optimization.
 Ipopt is released as open source code under the Eclipse Public License (EPL).
         For more information visit http://projects.coin-or.org/Ipopt
******************************************************************************

This is Ipopt version 3.12.8, running with linear solver mumps.
NOTE: Other linear solvers might be more efficient (see Ipopt documentation).

Number of nonzeros in equality constraint Jacobian...:        0
Number of nonzeros in inequality constraint Jacobian.:       21
Number of nonzeros in Lagrangian Hessian.............:       16

Total number of variables............................:        8
                     variables with only lower bounds:        0
                variables with lower and upper bounds:        8
                     variables with only upper bounds:        0
Total number of equality constraints.................:        0
Total number of inequality constraints...............:        6
        inequality constraints with only lower bounds:        5
   inequality constraints with lower and upper bounds:        0
        inequality constraints with only upper bounds:        1

iter    objective    inf_pr   inf_du lg(mu)  ||d||  lg(rg) alpha_du alpha_pr  ls
   0  3.6573657e+00 4.17e-01 9.51e-01  -1.0 0.00e+00    -  0.00e+00 0.00e+00   0
   1  3.7975529e+00 1.47e-01 1.12e+00  -1.0 6.78e-01    -  5.40e-01 6.07e-01H  1
   2  3.9846700e+00 2.86e-01 7.94e-01  -1.0 1.26e+00    -  8.07e-01 1.00e+00f  1
   3  3.9502850e+00 2.29e-01 1.60e+00  -1.7 3.65e-01    -  9.39e-01 5.34e-01h  1
   4  3.9993416e+00 1.73e-02 8.55e-02  -1.7 9.41e-01    -  1.00e+00 1.00e+00h  1
   5  3.9639428e+00 0.00e+00 4.28e-02  -2.5 2.29e-01    -  9.46e-01 1.00e+00h  1
   6  3.9623570e+00 0.00e+00 1.25e-04  -2.5 1.10e-02    -  1.00e+00 1.00e+00h  1
   7  3.9518368e+00 0.00e+00 8.89e-05  -3.8 4.36e-02    -  1.00e+00 1.00e+00f  1
   8  3.9511706e+00 0.00e+00 5.20e-07  -5.7 2.65e-03    -  1.00e+00 1.00e+00h  1
   9  3.9511633e+00 0.00e+00 4.54e-11  -8.6 2.92e-05    -  1.00e+00 1.00e+00h  1

Number of Iterations....: 9

                                   (scaled)                 (unscaled)
Objective...............:   3.9511633467577170e+00    3.9511633467577170e+00
Dual infeasibility......:   4.5427908018166566e-11    4.5427908018166566e-11
Constraint violation....:   0.0000000000000000e+00    0.0000000000000000e+00
Complementarity.........:   2.5406951368596138e-09    2.5406951368596138e-09
Overall NLP error.......:   2.5406951368596138e-09    2.5406951368596138e-09


Number of objective function evaluations             = 11
Number of objective gradient evaluations             = 10
Number of equality constraint evaluations            = 0
Number of inequality constraint evaluations          = 11
Number of equality constraint Jacobian evaluations   = 0
Number of inequality constraint Jacobian evaluations = 10
Number of Lagrangian Hessian evaluations             = 9
Total CPU secs in IPOPT (w/o function evaluations)   =      0.003
Total CPU secs in NLP function evaluations           =      0.000

EXIT: Optimal Solution Found.
 
Ipopt 3.12.8: Optimal Solution Found
